! engrad PBE0 D3BJ def2-TZVP  
%pal nprocs 8 end
%maxcore 3000

%tddft
  nroots 1
  tda true
  Iroot 1
  end 
*xyz 0 1 
O   -0.03381956510296349 0.8569713316455408 -0.0020077875322171705
C   -0.8004283451059024 -0.44061526925446054 -0.03405258287374404
C   0.7709217174494362 -0.47965168896511956 -0.022309171660738987
H   -1.3582999665472764 -0.6908861259624538 0.7987822536685522
H   -1.3430179111742861 -0.6302501771927852 -0.8806862120674583
H   1.285095698089248 -0.7166196671564606 -0.922361787807099
H   1.2636427430454715 -0.7261890444596272 0.9951460850883576
*
