! engrad PBE0 D3BJ def2-TZVP  
%pal nprocs 8 end
%maxcore 3000

%tddft
  nroots 1
  tda true
  Iroot 1
  end 
*xyz 0 1 
O   -1.0214088326791642 0.8820363258764221 0.02208105249652641
C   -0.729248793733583 -0.5170987939118424 0.003653066474808427
C   0.7888482063954422 -0.3675242819539122 0.005775368566757359
H   -1.2669852550661564 -0.6189312072590103 0.8504830395597563
H   -1.2220623115022153 -0.6712138976127486 -0.9983401342401697
H   1.2881851759895575 -0.7076479672835909 -0.8701546635770867
H   1.1469860140766206 -0.7048475065737403 0.9465581382092381
*
