! engrad PBE0 D3BJ def2-TZVP  
%pal nprocs 8 end
%maxcore 3000

%tddft
  nroots 1
  tda true
  Iroot 1
  end 
*xyz 0 1 
O   -0.22103106658483984 0.823997677270794 0.07163546898886669
C   -0.7445221848045857 -0.4830499266682506 0.04435814701538693
C   0.7718689606858707 -0.47884666522086744 0.0007848186057214459
H   -1.37595717770927 -0.6107690237640091 0.9695735211171339
H   -1.2161565635943785 -0.7693336510097486 -0.9366800882904048
H   1.2639287382341742 -0.6479981894214905 -0.9055216229509983
H   1.3298807796064693 -0.745616087661462 0.9098438537685409
*
