! engrad PBE0 D3BJ def2-TZVP  
%pal nprocs 8 end
%maxcore 3000

%tddft
  nroots 1
  tda true
  Iroot 1
  end 
*xyz 0 1 
O   -0.907683522739101 0.894713750271198 -0.07304274077479206
C   -0.7060823086255839 -0.44538500006760245 -0.009506092706622086
C   0.7444846027916296 -0.4848583521127071 0.010168867033285182
H   -1.3480635942799464 -0.6524196582956886 0.9656921534103619
H   -1.2575212070165736 -0.7395856974700349 -0.8780282072101997
H   1.244980833679433 -0.6489366491136299 -0.8878745760237157
H   1.2265903304473034 -0.574015553613044 0.9051251388118248
*
