! engrad PBE0 D3BJ def2-TZVP  
%pal nprocs 8 end
%maxcore 3000

%tddft
  nroots 1
  tda true
  Iroot 1
  end 
*xyz 0 1 
O   -0.7863491109644989 0.9711938280158862 -0.02613587736701498
C   -0.6833725382858096 -0.47886048741730064 -0.0016583482734380825
C   0.750473448684991 -0.43491150188348576 -0.05156003036299265
H   -1.2637077914248658 -0.5865994582751373 0.9233847036699065
H   -1.3034782175742723 -0.6795498086057149 -0.9320031536183044
H   1.2490352535547518 -0.6667054846336348 -0.9253126953545823
H   1.2359763371455785 -0.7584618731585426 0.9004435724228681
*
