! engrad PBE0 D3BJ def2-TZVP  
%pal nprocs 8 end
%maxcore 3000

%tddft
  nroots 1
  tda true
  Iroot 1
  end 
*xyz 0 1 
O   -0.957567703664909 0.9325121407919515 -0.07803755440679327
C   -0.7812512476798066 -0.41817538684296923 -0.02742526310124387
C   0.6836801404388502 -0.3363199090153246 0.007246154807632728
H   -1.3386301598028205 -0.6559817948114611 0.9526668607322606
H   -1.3203392159944 -0.6862627604943607 -0.9498083974239409
H   1.2037504380285784 -0.7866538016346413 -1.0494707855298342
H   1.2555607036255283 -0.6659287760436609 0.9897675468019387
*
