! engrad PBE0 D3BJ def2-TZVP  
%pal nprocs 8 end
%maxcore 3000

%tddft
  nroots 1
  tda true
  Iroot 1
  end 
*xyz 0 1 
O   -0.1969789075160084 0.9329533411357827 -0.003630295130571954
C   -0.7564197361781709 -0.4939281207046552 -0.06195357812973963
C   0.7358737037015647 -0.4581714390941238 0.10618459442967765
H   -1.2577092582870584 -0.7387423969961384 0.9911255176386122
H   -1.3712155218821804 -0.7356475356728878 -0.9017979921596676
H   1.2630852144097702 -0.6046511060726896 -0.9924545504431694
H   1.2040466829166514 -0.6978639586573624 0.8992509278233906
*
