! engrad PBE0 D3BJ def2-TZVP  
%pal nprocs 8 end
%maxcore 3000

%tddft
  nroots 1
  tda true
  Iroot 1
  end 
*xyz 0 1 
O   -0.49567912439635886 0.968883314285978 0.02472700103722382
C   -0.7421648585418573 -0.45189870041568475 0.04653618112337608
C   0.7093093936451127 -0.49580046231616354 -0.019138874394888407
H   -1.2627250469561584 -0.7241527254347637 0.9384276580236208
H   -1.2626626126450915 -0.6598285948082444 -0.8716420110957446
H   1.2972177278864423 -0.6573993502811135 -0.8433032083246476
H   1.2578919217457807 -0.5545010166052085 0.9603003637836399
*
