! engrad PBE0 D3BJ def2-TZVP  
%pal nprocs 8 end
%maxcore 3000

%tddft
  nroots 1
  tda true
  Iroot 1
  end 
*xyz 0 1 
O   -0.7211924901755584 0.9914815480494275 -0.024017823758860597
C   -0.7325029764069814 -0.3984807993279228 -0.05035880982216209
C   0.7218645843583106 -0.4372571989801323 -0.013345280946018057
H   -1.290944104464895 -0.7579778831085495 0.9671733503710132
H   -1.2452919417895427 -0.645628284440856 -0.9674751640973431
H   1.2870463358049333 -0.6525988159959619 -0.964556401960299
H   1.1679828002250265 -0.687012843572781 0.9766613294704894
*
