! engrad PBE0 D3BJ def2-TZVP  
%pal nprocs 8 end
%maxcore 3000

%tddft
  nroots 1
  tda true
  Iroot 1
  end 
*xyz 0 1 
O   -0.796431494067364 0.9879343962934217 0.024525176640351587
C   -0.781219927094061 -0.49973588307276445 -0.12448263876500687
C   0.7495524788033538 -0.41795619318519484 0.014267372332663118
H   -1.2324656918697652 -0.8158262009490426 0.897197482725506
H   -1.2101643270072657 -0.696508110518153 -0.9101952406411243
H   1.235925062873802 -0.6350523830752484 -0.9446411159227279
H   1.1513375570647664 -0.6328016517842031 0.891515834786684
*
