! engrad PBE0 D3BJ def2-TZVP  
%pal nprocs 8 end
%maxcore 3000

%tddft
  nroots 1
  tda true
  Iroot 1
  end 
*xyz 0 1 
O   -1.1671537213545298 0.8970766243295356 0.0013910776500609824
C   -0.8382524705677653 -0.44028330122513104 -0.034072782303818126
C   0.6077699869346175 -0.4259618024081854 -0.033866732287274236
H   -1.3208336511815704 -0.6540400119380158 0.8928641498710925
H   -1.2406467969248196 -0.7113553128165524 -0.8762491064378989
H   1.2366098928966276 -0.6497725568680089 -0.9417232813788591
H   1.3193290224561567 -0.7363391479419298 0.9132004862469045
*
