! engrad PBE0 D3BJ def2-TZVP  
%pal nprocs 8 end
%maxcore 3000

%tddft
  nroots 1
  tda true
  Iroot 1
  end 
*xyz 0 1 
O   0.10610785985063168 0.8185475730275574 -0.07596838829770068
C   -0.7531012936433126 -0.38367493254066887 -0.03538347328093904
C   0.7510805114073114 -0.40828878732853313 -0.04634652357890415
H   -1.26679919780309 -0.8303341770034536 0.8687568379332855
H   -1.276451177569658 -0.7306600690982425 -0.8383556548034182
H   1.1923157511019682 -0.6902730843348492 -0.9134391911356955
H   1.3358865344533057 -0.7400639175589719 0.9781343576077479
*
