! engrad PBE0 D3BJ def2-TZVP  
%pal nprocs 8 end
%maxcore 3000

%tddft
  nroots 1
  tda true
  Iroot 1
  end 
*xyz 0 1 
O   -1.1611686115647921 0.9361155672074594 0.048578628546713125
C   -0.8082091470365489 -0.47254958245719864 -0.04394864687025795
C   0.6721135361934458 -0.4221701511340821 0.07551129326535855
H   -1.2177862481124089 -0.6363002093538856 0.9808282392525411
H   -1.256060152075236 -0.6678094468200737 -0.9287103074222239
H   1.2825146353557513 -0.6021635221323692 -0.8645622830249977
H   1.2491887581831944 -0.6200831526048579 0.9681519923573036
*
