! engrad PBE0 D3BJ def2-TZVP  
%pal nprocs 8 end
%maxcore 3000

%tddft
  nroots 1
  tda true
  Iroot 1
  end 
*xyz 0 1 
O   -0.05113957825992028 0.7540554831288327 -0.08342909369387948
C   -0.708928433869736 -0.41466069301486297 -0.0241593231149687
C   0.8075888781645015 -0.508308773150117 -0.07321874401049101
H   -1.2526003390720013 -0.6159158948693922 1.0041726045728934
H   -1.286766983143447 -0.6143368683284353 -0.9219016434750353
H   1.2551914550029588 -0.6240878631256664 -0.887360076079329
H   1.1850032621507876 -0.5944437925137052 0.9889807377073726
*
