! engrad PBE0 D3BJ def2-TZVP  
%pal nprocs 8 end
%maxcore 3000

%tddft
  nroots 1
  tda true
  Iroot 1
  end 
*xyz 0 1 
O   0.056328301477387877 0.7534798754722585 -0.05532618543708352
C   -0.6002215998375069 -0.44405956829927556 0.0006964645956473102
C   0.7276832856444998 -0.43711625196160725 -0.007218020596197124
H   -1.2925060303440117 -0.6956137570620196 0.9183385564892
H   -1.2909940085566882 -0.7039131991338583 -0.9146547086154052
H   1.2510739591289572 -0.5930712105708655 -1.0525247104196507
H   1.318398212596123 -0.6059665503751186 0.8163066583795925
*
