! engrad PBE0 D3BJ def2-TZVP  
%pal nprocs 8 end
%maxcore 3000

%tddft
  nroots 1
  tda true
  Iroot 1
  end 
*xyz 0 1 
O   -0.5305756929175096 1.0358662647002923 -0.05709122020413681
C   -0.6933518464970363 -0.4214729579886196 0.05745147170727597
C   0.7019665286797279 -0.4838527442827509 -0.0037998241324467283
H   -1.2213820388901715 -0.6357816454035848 0.8914156360250105
H   -1.309530686377666 -0.674446898766428 -0.9058945442151969
H   1.3036034174247428 -0.6593011392460592 -0.8598758776866517
H   1.2824136424160617 -0.6827749889387956 0.9391547181038161
*
