! engrad PBE0 D3BJ def2-TZVP  
%pal nprocs 8 end
%maxcore 3000

%tddft
  nroots 1
  tda true
  Iroot 1
  end 
*xyz 0 1 
O   0.024835757650561636 0.7600110949414408 0.03238453690503462
C   -0.6527380971795987 -0.4587281587361668 -0.011706847847459028
C   0.8078501807753695 -0.4086487535423545 -0.023473719296747606
H   -1.2366949278207016 -0.6914416946406231 0.8966897323214872
H   -1.2517246564216982 -0.76393492223289 -1.0062221116256516
H   1.2357084435379513 -0.7189124160167212 -0.9042638533702363
H   1.2184216662239395 -0.7388859950667646 0.9932586084460777
*
