! engrad PBE0 D3BJ def2-TZVP  
%pal nprocs 8 end
%maxcore 3000

%tddft
  nroots 1
  tda true
  Iroot 1
  end 
*xyz 0 1 
O   0.0005117030509793525 0.7178488774476025 0.02310528371316354
C   -0.7189366052213265 -0.4770313338579397 0.003490104249500946
C   0.7096238601569119 -0.4413446227374376 0.03310653372605234
H   -1.1845220891927324 -0.7301615849413424 1.0266278887328133
H   -1.3614271599761252 -0.6758601647517792 -0.8905603596757712
H   1.2778724133867516 -0.6994058359910297 -0.9303823325178637
H   1.2391728232670585 -0.6977390478472105 0.9624562748510512
*
