! engrad PBE0 D3BJ def2-TZVP  
%pal nprocs 8 end
%maxcore 3000

%tddft
  nroots 1
  tda true
  Iroot 1
  end 
*xyz 0 1 
O   -0.19539342123534373 0.8774600415727762 0.11828855200956377
C   -0.7040824436876203 -0.40719074666675237 -0.023701044506284255
C   0.7260547541754535 -0.37913062709464707 -0.04024168620833519
H   -1.3700039424546464 -0.6849459320216623 0.8756402523757311
H   -1.2471128734550496 -0.6414317187548625 -0.95716773839681
H   1.247812625887956 -0.7140808030633271 -0.962959634999087
H   1.2751221443366878 -0.6368320186730853 0.9293008874386537
*
