! engrad PBE0 D3BJ def2-TZVP  
%pal nprocs 8 end
%maxcore 3000

%tddft
  nroots 1
  tda true
  Iroot 1
  end 
*xyz 0 1 
O   -0.7534389149492687 1.0021736952359295 0.03532799131167136
C   -0.7143440292757276 -0.3911713142317879 -0.04540993799565835
C   0.7567674098144983 -0.4578683025883427 -0.09281337029905333
H   -1.2032663319031136 -0.6451829795053435 0.9371426928641996
H   -1.2443722970757378 -0.6703877919265502 -0.8174735583249779
H   1.2482126705206202 -0.6751270548397333 -0.9915879696337092
H   1.2619604479123154 -0.6059341909963575 0.9414643391084392
*
