! engrad PBE0 D3BJ def2-TZVP  
%pal nprocs 8 end
%maxcore 3000

%tddft
  nroots 1
  tda true
  Iroot 1
  end 
*xyz 0 1 
O   -0.09024405503322595 0.6855471881058419 0.0024043573330691003
C   -0.7159034649139259 -0.49223632125522043 0.031929622938868696
C   0.645813536886552 -0.4503244799323658 -0.06055080998812284
H   -1.2964147353901079 -0.6659008764341793 0.8769555517358024
H   -1.2830505472114913 -0.6179562695392781 -0.9488208134761574
H   1.305607425603257 -0.7247562027328809 -0.8934860111042359
H   1.335901301032895 -0.7918530350063645 0.8801314072264761
*
