! engrad PBE0 D3BJ def2-TZVP  
%pal nprocs 8 end
%maxcore 3000

%tddft
  nroots 1
  tda true
  Iroot 1
  end 
*xyz 0 1 
O   -0.04127480983962558 0.7508550179173504 0.020646682713781218
C   -0.7570758176401987 -0.48813150977832154 0.012184360574595616
C   0.7411378685554361 -0.47236764876855647 -0.02355191528091614
H   -1.252220433132118 -0.7406750270748662 0.8496030312811722
H   -1.2997449810626218 -0.6789432675855924 -0.9044308417200998
H   1.3375906308474774 -0.625387878839899 -0.9279731464981714
H   1.2628720596048657 -0.7183972782318905 0.9190505132003804
*
