! engrad PBE0 D3BJ def2-TZVP  
%pal nprocs 8 end
%maxcore 3000

%tddft
  nroots 1
  tda true
  Iroot 1
  end 
*xyz 0 1 
O   0.028853656359027004 0.7567720406978504 0.018557403668565443
C   -0.759088849335791 -0.442691000626355 -0.007783861769603974
C   0.7872786430829903 -0.43429944783493935 0.01688013310376011
H   -1.2844167783061233 -0.6926511212036247 0.898348310609019
H   -1.244100162881085 -0.6893201340410132 -0.9054874771551794
H   1.3675928599322718 -0.6247146248284154 -0.936277396608392
H   1.3238835661081974 -0.6886745786510775 0.8180699432411073
*
