! engrad PBE0 D3BJ def2-TZVP  
%pal nprocs 8 end
%maxcore 3000

%tddft
  nroots 1
  tda true
  Iroot 1
  end 
*xyz 0 1 
O   -0.08462318148574097 0.8434018259730307 -0.007900284928949472
C   -0.750233643497371 -0.4976257087630084 -0.08274283359328848
C   0.7700480691980957 -0.4433545916405798 -0.0644980449870527
H   -1.3285768686031807 -0.6850600449645065 1.0034272962644697
H   -1.2768023375681803 -0.7434280576559054 -0.9322633732042972
H   1.2501866415126164 -0.8031151921470786 -0.9226909633258906
H   1.2522761434895662 -0.6334604917593291 1.0124239747472672
*
