! engrad PBE0 D3BJ def2-TZVP  
%pal nprocs 8 end
%maxcore 3000

%tddft
  nroots 1
  tda true
  Iroot 1
  end 
*xyz 0 1 
O   -0.9224623242604191 0.9720584066410152 -0.07921781786863241
C   -0.6913985792369097 -0.4577499718353405 0.007873026785331616
C   0.7616424709854731 -0.47436497648397036 0.07437741875244905
H   -1.3065944608574713 -0.7097656384089017 0.9439503581527253
H   -1.3182097351322843 -0.6292857194948837 -0.8609588392484878
H   1.2445468753575037 -0.7558821607890354 -0.8516283876464565
H   1.2581586941476413 -0.7364458656260562 0.9921853114740685
*
