! engrad PBE0 D3BJ def2-TZVP  
%pal nprocs 8 end
%maxcore 3000

%tddft
  nroots 1
  tda true
  Iroot 1
  end 
*xyz 0 1 
O   -1.2537215140520301 0.829301845206476 -0.10355990492578247
C   -0.7056860554229157 -0.4713404610971533 0.06320292212676291
C   0.8077810760275792 -0.46981584308042396 -0.03587803631722671
H   -1.3184674262929554 -0.5973510734554509 0.9777661798910892
H   -1.2336915510950075 -0.7088353911426649 -0.8850053119145082
H   1.1662799866458575 -0.670925894940032 -0.9232684601387999
H   1.1697166246113067 -0.5422090876172683 0.9186954599943132
*
