! engrad PBE0 D3BJ def2-TZVP  
%pal nprocs 8 end
%maxcore 3000

%tddft
  nroots 1
  tda true
  Iroot 1
  end 
*xyz 0 1 
O   0.10949019666088362 0.7265093957322425 -0.04198598210903881
C   -0.758859222272201 -0.5532152762154904 -0.026287751084038052
C   0.690932906922315 -0.43950080067618963 0.017087798788857973
H   -1.1700143880392055 -0.6207496180906975 0.8911310372168798
H   -1.308743503567418 -0.6436749514246748 -0.9859878803510321
H   1.3553957582927176 -0.6092988539639357 -0.9434350026052353
H   1.1781661435454562 -0.6005771912917294 0.9142491777373691
*
