! engrad PBE0 D3BJ def2-TZVP  
%pal nprocs 8 end
%maxcore 3000

%tddft
  nroots 1
  tda true
  Iroot 1
  end 
*xyz 0 1 
O   -0.012269355800143525 0.7292375017821255 -0.04447561148127617
C   -0.7696801042482719 -0.4508755754707052 0.017057598740832194
C   0.7427240799665009 -0.4056613275481988 0.000650094593895351
H   -1.1911462261421342 -0.6815036516618977 1.055984678329481
H   -1.2325394026117498 -0.7111287878208141 -0.9735208449030557
H   1.2879464407621593 -0.6794439992662926 -0.8842761952953954
H   1.2874847512286773 -0.6719122556328436 0.8776364840965797
*
