! engrad PBE0 D3BJ def2-TZVP  
%pal nprocs 8 end
%maxcore 3000

%tddft
  nroots 1
  tda true
  Iroot 1
  end 
*xyz 0 1 
O   0.05975238144624213 0.6907649647608113 -0.027945982363579418
C   -0.710028996246774 -0.36874428853828295 -0.00328751305364939
C   0.7011295636653401 -0.3529626365279705 -0.0724006950208122
H   -1.373763227831004 -0.6462700874973334 0.8948735087823695
H   -1.3148844108565356 -0.6328530876350323 -0.9077861843114401
H   1.2356188884631636 -0.7322860799335448 -0.8763533535859928
H   1.296332928897933 -0.6732296031889692 1.0123080198023833
*
