! engrad PBE0 D3BJ def2-TZVP  
%pal nprocs 8 end
%maxcore 3000

%tddft
  nroots 1
  tda true
  Iroot 1
  end 
*xyz 0 1 
O   -0.014432881946006917 0.7830602380169045 -0.04136143717761615
C   -0.7029222642879414 -0.3703835443498711 -0.00543800742284288
C   0.748975126104947 -0.41251329041444434 -0.020061023594291814
H   -1.252618305909479 -0.6676411899609103 0.9248600249274416
H   -1.3024732591927732 -0.6670454012870529 -0.8950763054377275
H   1.336380000389752 -0.6203073186957396 -0.8123170971244222
H   1.2254554918555975 -0.6246547781639661 0.9291432702869176
*
