! engrad PBE0 D3BJ def2-TZVP  
%pal nprocs 8 end
%maxcore 3000

%tddft
  nroots 1
  tda true
  Iroot 1
  end 
*xyz 0 1 
O   0.06392264313036494 0.7764792634009953 0.0023219374078074406
C   -0.796882397048996 -0.40970781169863896 0.03227420905705377
C   0.837052276165273 -0.46240940174765005 0.010957516383196949
H   -1.2513537458144621 -0.5893981460118263 0.9152114433806524
H   -1.249871693711483 -0.6378760845141731 -0.9106457638421821
H   1.2415011392724735 -0.6585663603550846 -0.8662946325070114
H   1.212497105029447 -0.6616223262926562 0.8849701292530413
*
