! engrad PBE0 D3BJ def2-TZVP  
%pal nprocs 8 end
%maxcore 3000

%tddft
  nroots 1
  tda true
  Iroot 1
  end 
*xyz 0 1 
O   0.020202592840726924 0.8612336050605266 0.008729000641591947
C   -0.7160120704638617 -0.45074278578830834 -0.09593856076495208
C   0.7275638462275391 -0.44400897950294865 0.12316210562426431
H   -1.273440978239056 -0.6531934428833194 0.9182406315147379
H   -1.3222566718809765 -0.611129769274249 -0.8823795683656613
H   1.3033744173521522 -0.713740232739737 -0.849836504453195
H   1.1937303168603859 -0.6389279553099865 1.0294989512904988
*
