! engrad PBE0 D3BJ def2-TZVP  
%pal nprocs 8 end
%maxcore 3000

%tddft
  nroots 1
  tda true
  Iroot 1
  end 
*xyz 0 1 
O   -1.4042925196048548 0.7662251872637404 0.016605332579205198
C   -0.7436720825382942 -0.5304616750102223 0.06448388292112614
C   0.783741044631282 -0.38289970665186907 -0.016206497151837983
H   -1.233275293495008 -0.6198156408044575 0.9254925889144539
H   -1.250517036387727 -0.6119763574178997 -0.9611030321424978
H   1.2042446205536064 -0.6150657376366313 -0.9498254041996503
H   1.197228687059767 -0.6870085946305186 0.8339965150776264
*
