! engrad PBE0 D3BJ def2-TZVP  
%pal nprocs 8 end
%maxcore 3000

%tddft
  nroots 1
  tda true
  Iroot 1
  end 
*xyz 0 1 
O   -0.17642874915015722 0.8444911978248476 -0.023400762749312454
C   -0.6676608722436913 -0.5110759037572021 0.043773775213716226
C   0.6433537737985235 -0.46955874515681373 0.03745819029595326
H   -1.2740195733050625 -0.6773795805832867 0.9540090202190729
H   -1.3547477195195807 -0.6659173282337145 -0.9002340095336397
H   1.2514012172809577 -0.6991561923998508 -0.9541204198224668
H   1.285635750217046 -0.7534214487056619 0.9396616999569333
*
