! engrad PBE0 D3BJ def2-TZVP  
%pal nprocs 8 end
%maxcore 3000

%tddft
  nroots 1
  tda true
  Iroot 1
  end 
*xyz 0 1 
O   -1.0182066345004768 0.8403806899265791 -0.027541434959938882
C   -0.7671871913718599 -0.48613195841435985 0.03193115419377136
C   0.7289556586998173 -0.45643023034712754 -0.08107096240241717
H   -1.2795140396381193 -0.7262516636011933 0.8862397439605046
H   -1.2703061108882598 -0.6453402973901959 -0.9191753867428004
H   1.24248282557466 -0.6662098400640798 -0.9072954973918351
H   1.1794185775597539 -0.7061658024259015 0.9677070171292409
*
