! engrad PBE0 D3BJ def2-TZVP  
%pal nprocs 8 end
%maxcore 3000

%tddft
  nroots 1
  tda true
  Iroot 1
  end 
*xyz 0 1 
O   -0.7519699061377929 1.0145342539268005 -0.05952191798086701
C   -0.6983966992573536 -0.4252903486791058 -0.06285557427519274
C   0.656197674260207 -0.5336130666443946 0.05923421280442753
H   -1.1799557416449944 -0.6855453237914186 0.9471804603143155
H   -1.3014789560560496 -0.7056279512664348 -0.9921676659739996
H   1.1646447818886259 -0.621513880943951 -0.8373365133154037
H   1.2064975970062708 -0.6810666521853088 0.9113226618014523
*
