! engrad PBE0 D3BJ def2-TZVP  
%pal nprocs 8 end
%maxcore 3000

%tddft
  nroots 1
  tda true
  Iroot 1
  end 
*xyz 0 1 
O   -1.4810054250092544 0.7129739456254789 -0.07636875863297098
C   -0.7880826838857367 -0.3635058414919722 0.0669064665210543
C   0.7968541339384557 -0.3684464296454291 -0.06229125508486735
H   -1.2690844871139124 -0.6914210211832355 1.0778467976862363
H   -1.2188944981965943 -0.6793815533140738 -1.0042858012523828
H   1.3233036481950111 -0.7201584285047639 -0.8617283816668724
H   1.2602611054019595 -0.7012091268455557 1.0083226856811036
*
