! engrad PBE0 D3BJ def2-TZVP  
%pal nprocs 8 end
%maxcore 3000

%tddft
  nroots 1
  tda true
  Iroot 1
  end 
*xyz 0 1 
O   0.10303744624409936 0.8546913521221603 -0.012448097423953676
C   -0.6803110424522822 -0.4147516925207426 0.06843157787661744
C   0.6806433669709947 -0.41271791700007804 0.052921224342479395
H   -1.3517599043211557 -0.7274337356332887 0.818014611111995
H   -1.277293111722228 -0.632393797210202 -0.8448583673951986
H   1.2675275590209887 -0.5868400827214354 -0.9889812929107445
H   1.1786537480322423 -0.6710481949448309 0.9391794424469654
*
