! engrad PBE0 D3BJ def2-TZVP  
%pal nprocs 8 end
%maxcore 3000

%tddft
  nroots 1
  tda true
  Iroot 1
  end 
*xyz 0 1 
O   -0.005782364119412027 0.7518691252205356 -0.07392598951837137
C   -0.7648818004197354 -0.47005242854798934 0.05285611131094579
C   0.746070454478423 -0.5351724977681367 0.01620419846973975
H   -1.2830770440208157 -0.702116910015298 0.9505600344420434
H   -1.2122727938752025 -0.6217069040441902 -0.961937096161132
H   1.2483622012074391 -0.6517076884298219 -0.871198963643882
H   1.2398641581077356 -0.6775537588331908 0.8646594212996985
*
