! engrad PBE0 D3BJ def2-TZVP  
%pal nprocs 8 end
%maxcore 3000

%tddft
  nroots 1
  tda true
  Iroot 1
  end 
*xyz 0 1 
O   -0.011288765024326785 0.7703007202343962 -0.07123729931067284
C   -0.7561087262262591 -0.44147436051450667 -0.057549678871115145
C   0.7476744409172835 -0.47705242449594026 -0.01458468748966384
H   -1.2939082606114698 -0.5756569007745531 0.9193013587631033
H   -1.316708316447795 -0.6271436643948406 -0.9810184024985511
H   1.2742659997502377 -0.7662543661939888 -0.9863855224449215
H   1.2736659317934562 -0.6313474810002295 0.9285445840594985
*
