! engrad PBE0 D3BJ def2-TZVP  
%pal nprocs 8 end
%maxcore 3000

%tddft
  nroots 1
  tda true
  Iroot 1
  end 
*xyz 0 1 
O   0.07480226557445915 0.7996425928177029 -0.0027791235455227534
C   -0.714891158684009 -0.5032949423649188 0.12228759898084132
C   0.7353505990987613 -0.4415507502697553 0.036288331194934596
H   -1.2397724684131641 -0.6570766087860435 0.8804524972277344
H   -1.2402493521432 -0.5741696851762483 -0.8527052176922512
H   1.3434821513319697 -0.6938316438215593 -0.969456461012929
H   1.2575335239950176 -0.6654845643855652 0.9746857459235474
*
