! engrad PBE0 D3BJ def2-TZVP  
%pal nprocs 8 end
%maxcore 3000

%tddft
  nroots 1
  tda true
  Iroot 1
  end 
*xyz 0 1 
O   -0.4763301907081711 0.9875665395273572 0.11052927951202568
C   -0.7824656172543769 -0.4430228058122036 -0.04595741395681782
C   0.763864656949794 -0.49263589849348977 -0.043267545836105564
H   -1.290330516328529 -0.6615046029336096 0.9417923793694605
H   -1.319095193796081 -0.7205461584940769 -0.8913843605424164
H   1.1899050102335316 -0.671716142357977 -0.9337012371463124
H   1.280974064123338 -0.74038364692642 0.9227756444155871
*
