! engrad PBE0 D3BJ def2-TZVP  
%pal nprocs 8 end
%maxcore 3000

%tddft
  nroots 1
  tda true
  Iroot 1
  end 
*xyz 0 1 
O   -0.6760558291839665 0.9505118596229704 -0.0070507768165884955
C   -0.7343991716209768 -0.48638970451929103 -0.025707958217194144
C   0.686903461610899 -0.4263773203854076 -0.1048420950584123
H   -1.283101423706982 -0.6383072503981899 0.9478960487208161
H   -1.3294669808354926 -0.7583187581342034 -0.9527535048353902
H   1.3529397035192854 -0.6556485896401142 -0.960817037897408
H   1.2966393050408103 -0.7453791341842744 0.956961263748533
*
