! engrad PBE0 D3BJ def2-TZVP  
%pal nprocs 8 end
%maxcore 3000

%tddft
  nroots 1
  tda true
  Iroot 1
  end 
*xyz 0 1 
O   -0.05040426554587021 0.6733847139487072 -0.017575564202065432
C   -0.7279686710405224 -0.36319862438623585 0.016346368688208133
C   0.7179345135595567 -0.40555021094082555 -0.11055676545039426
H   -1.2520422020945716 -0.6297275503056516 0.846046907711008
H   -1.2066350678396536 -0.6513460896252794 -0.9407406156950401
H   1.2954619133053142 -0.5547362171097803 -0.9108829072470752
H   1.2762338993150169 -0.6912388549770122 0.8774839515267604
*
