! engrad PBE0 D3BJ def2-TZVP  
%pal nprocs 8 end
%maxcore 3000

%tddft
  nroots 1
  tda true
  Iroot 1
  end 
*xyz 0 1 
O   -1.1943263217637248 0.8782137288777498 -0.010729227162163919
C   -0.7726197762703593 -0.4479510663438744 -0.02370386161290418
C   0.7716984366142912 -0.3962632396319452 -0.0459453527756492
H   -1.2489502701985797 -0.6238404833715246 0.9153735424681404
H   -1.2855125650964816 -0.5913713243061874 -0.9375781874226592
H   1.2132488612545225 -0.5834182581377498 -0.8917367918050217
H   1.311548423179055 -0.6102578042027206 0.9223090341756989
*
