! engrad PBE0 D3BJ def2-TZVP  
%pal nprocs 8 end
%maxcore 3000

%tddft
  nroots 1
  tda true
  Iroot 1
  end 
*xyz 0 1 
O   -0.3423053424018332 1.0109990898191321 -0.01061485129354744
C   -0.6662585046233911 -0.41008681102337413 0.06609149412078952
C   0.6618632653440731 -0.38542887330127806 -0.05996564737121002
H   -1.1363951113240653 -0.5876127529516928 1.0069443569928629
H   -1.2615634774573103 -0.6501942260010204 -0.8388473936894718
H   1.2635729060512526 -0.6318852477294716 -0.8645139916780589
H   1.2759287396431334 -0.6824841214520915 0.9995630773267646
*
