! engrad PBE0 D3BJ def2-TZVP  
%pal nprocs 8 end
%maxcore 3000

%tddft
  nroots 1
  tda true
  Iroot 1
  end 
*xyz 0 1 
O   -0.6829987069061947 0.9589889804181618 0.02679573806699722
C   -0.7521412129095411 -0.40134405022686315 0.06423794169680283
C   0.7111648952727354 -0.4394715999118703 0.011334249426106956
H   -1.2787864868814591 -0.7332512035151112 0.9109832558489074
H   -1.1689065582859608 -0.6982550812856578 -0.8969911394110422
H   1.2408149183672743 -0.7630164406546887 -0.9378541930785252
H   1.3441471440079507 -0.6714321974420335 0.9844794032276672
*
