! engrad PBE0 D3BJ def2-TZVP  
%pal nprocs 8 end
%maxcore 3000

%tddft
  nroots 1
  tda true
  Iroot 1
  end 
*xyz 0 1 
O   0.05327406875326757 0.7410598874949814 0.07046748200927899
C   -0.6139446838190374 -0.46516241802198294 -0.022275126070038592
C   0.801558763855885 -0.3680418827134644 -0.026143001357663415
H   -1.2848322708547928 -0.6823600404430253 0.8527536944482862
H   -1.30975536732421 -0.7184779483376035 -0.9583660982552065
H   1.2620885756306608 -0.6565601233731739 -0.8424511953592961
H   1.2139051679630606 -0.6190546900761708 0.9092767277887245
*
