! engrad PBE0 D3BJ def2-TZVP  
%pal nprocs 8 end
%maxcore 3000

%tddft
  nroots 1
  tda true
  Iroot 1
  end 
*xyz 0 1 
O   -0.07574231123429323 0.744598562396649 0.04282004971617362
C   -0.7181849027934898 -0.5093074289355994 0.0086590462925591
C   0.7481554089864418 -0.49121336181005665 0.007686255297276396
H   -1.2609124940777 -0.7254193248915312 0.9378655880174142
H   -1.2357835436815883 -0.6141183478412362 -0.8672861173982549
H   1.1949393516021454 -0.7151621119957562 -0.8942244566395671
H   1.2895121675456105 -0.6425184256846976 1.112612744532736
*
