! engrad PBE0 D3BJ def2-TZVP  
%pal nprocs 8 end
%maxcore 3000

%tddft
  nroots 1
  tda true
  Iroot 1
  end 
*xyz 0 1 
O   -0.032532078456091344 0.7425680408117652 -0.02961958621194346
C   -0.7720891284839908 -0.4445944086027586 -0.04154750582055189
C   0.7424123812889919 -0.4495323954724568 -0.011947402343320488
H   -1.3092011131020798 -0.6971093765284166 0.9577457812912878
H   -1.238776910618781 -0.7171486722399276 -0.9150096047285388
H   1.3013921761685894 -0.7517411240560686 -0.8928082103810032
H   1.2306916820527076 -0.6397408765703421 0.8818132121728741
*
