! engrad PBE0 D3BJ def2-TZVP  
%pal nprocs 8 end
%maxcore 3000

%tddft
  nroots 1
  tda true
  Iroot 1
  end 
*xyz 0 1 
O   -0.7565283845222538 1.0757943885058143 -0.017043889331135886
C   -0.7633393124075184 -0.4913744241213824 -0.03493508265808848
C   0.7605999590518834 -0.4750392905673034 -0.11522178287763468
H   -1.3404107083067083 -0.6672957068643552 0.907399203613131
H   -1.2995473984867376 -0.6591762707982423 -0.9364445531682778
H   1.2876437810157244 -0.5937609161094721 -0.9304020488272691
H   1.2888105454687797 -0.6709484601978182 0.9955930074968025
*
