! engrad PBE0 D3BJ def2-TZVP  
%pal nprocs 8 end
%maxcore 3000

%tddft
  nroots 1
  tda true
  Iroot 1
  end 
*xyz 0 1 
O   -0.8744211899781744 1.0316561987153434 -0.02710648280295611
C   -0.7070118403386143 -0.4130161709232789 -0.053022985798070056
C   0.7287998948021709 -0.4320916164327292 0.013349535823322524
H   -1.2726054453418862 -0.6052289420968379 0.9663233387867357
H   -1.183357144107224 -0.710669112027649 -0.9091622697433602
H   1.331424410597199 -0.6718611107528829 -0.9090997867277901
H   1.2419530228645375 -0.6963530938897408 0.942057754606721
*
