! engrad PBE0 D3BJ def2-TZVP  
%pal nprocs 8 end
%maxcore 3000

%tddft
  nroots 1
  tda true
  Iroot 1
  end 
*xyz 0 1 
O   -1.4911584237449411 0.8184344141699287 -0.02555341392420105
C   -0.7195048714647962 -0.4079624462374166 -0.003941161803605556
C   0.714908502173482 -0.5033134834371278 -0.030033509613540146
H   -1.2508724457871538 -0.6970964389528842 0.9268392624892083
H   -1.3062237491574344 -0.7027476765450035 -0.9388053153640997
H   1.3002565468029739 -0.6842774548779222 -0.9434854681006525
H   1.3021206003901733 -0.5944101792197387 0.9497804627166908
*
