! engrad PBE0 D3BJ def2-TZVP  
%pal nprocs 8 end
%maxcore 3000

%tddft
  nroots 1
  tda true
  Iroot 1
  end 
*xyz 0 1 
O   -0.0757871557498616 0.8442995700665031 0.08979399365477608
C   -0.7595290245242193 -0.4664055679967992 0.014293269536245249
C   0.7456123794993512 -0.41409327636635845 0.10051022693831749
H   -1.2726702913747023 -0.7081856722269226 0.8510102585992736
H   -1.3003692719970958 -0.66992725864369 -0.8302483268241106
H   1.2379422550481913 -0.6570814624180551 -0.9207973648036376
H   1.3232425336724043 -0.5419241887063189 0.8934327313539839
*
