! engrad PBE0 D3BJ def2-TZVP  
%pal nprocs 8 end
%maxcore 3000

%tddft
  nroots 1
  tda true
  Iroot 1
  end 
*xyz 0 1 
O   -0.46430289815404746 0.973537165352685 -0.031209473125896902
C   -0.7939272974355485 -0.41247106442901516 -0.04014381412657148
C   0.8072150884372953 -0.4964285973461756 -0.04629932584482809
H   -1.2825963845722257 -0.6630972534391893 0.8519164071621523
H   -1.3567817987694006 -0.6179948631810166 -0.8133580655965585
H   1.376200905951856 -0.6267438778291547 -0.9775896169205007
H   1.2945288943013684 -0.6481060376858524 0.902351037289904
*
