! engrad PBE0 D3BJ def2-TZVP  
%pal nprocs 8 end
%maxcore 3000

%tddft
  nroots 1
  tda true
  Iroot 1
  end 
*xyz 0 1 
O   0.01785082429825237 0.7322788302369674 0.04498010377166253
C   -0.7135246139561695 -0.406377384058052 0.03148144209618061
C   0.6874397894538964 -0.4750295420098485 0.037364680256163095
H   -1.2333044167283267 -0.6693158896982074 0.9258425891654392
H   -1.1999395252105787 -0.6978494794417915 -0.8926213509414981
H   1.2537131873783052 -0.679154920161361 -0.8650373774006405
H   1.3050936874494015 -0.6275953281999681 0.9852501103577165
*
