! engrad PBE0 D3BJ def2-TZVP  
%pal nprocs 8 end
%maxcore 3000

%tddft
  nroots 1
  tda true
  Iroot 1
  end 
*xyz 0 1 
O   0.0010502420816379523 0.8010219585647482 -0.015513227829672804
C   -0.7126812723755779 -0.4535276427183842 0.00484979824963591
C   0.7586473912718457 -0.4879315241616736 0.10461936378427301
H   -1.314123799074985 -0.7289802406393866 0.9778817636750035
H   -1.2242396353018532 -0.6370649191473923 -0.888558944536786
H   1.2632104813576541 -0.7131335785742916 -0.9161859920903137
H   1.2299647844243944 -0.6195148233291125 0.9126233009248931
*
