! engrad PBE0 D3BJ def2-TZVP  
%pal nprocs 8 end
%maxcore 3000

%tddft
  nroots 1
  tda true
  Iroot 1
  end 
*xyz 0 1 
O   -0.3158925614433656 0.8940162013829134 -0.029644179624384454
C   -0.8025454106732823 -0.49184952076509353 0.05521757849301563
C   0.7073120642241977 -0.4550773354122029 0.044457874703643686
H   -1.2494040876142367 -0.7208477568785019 0.9039981500079884
H   -1.29482242438606 -0.6604209911776656 -0.9485489875539894
H   1.3167044791602307 -0.7078453004738943 -0.9462075872964235
H   1.2674167719685185 -0.5727328386361409 0.9593744041568807
*
