! engrad PBE0 D3BJ def2-TZVP  
%pal nprocs 8 end
%maxcore 3000

%tddft
  nroots 1
  tda true
  Iroot 1
  end 
*xyz 0 1 
O   -0.45286221615317035 0.9378621819452786 -0.10061139706366368
C   -0.7451093778431528 -0.43479315321666895 0.0008616336069502402
C   0.7353359864001964 -0.5183200269522996 0.010286662672768017
H   -1.2729444571103372 -0.5864262085786951 0.9082029974993902
H   -1.3570542469436617 -0.5290407829741021 -0.9698677283138051
H   1.2064486057401438 -0.5953681338902672 -0.9128325772724775
H   1.2707380918673834 -0.5993937419228423 0.8379965196014273
*
