! engrad PBE0 D3BJ def2-TZVP  
%pal nprocs 8 end
%maxcore 3000

%tddft
  nroots 1
  tda true
  Iroot 1
  end 
*xyz 0 1 
O   0.03079683034721319 0.7965793728984193 -0.015477211965699516
C   -0.712582938887894 -0.5095761688192652 0.046201350960345056
C   0.7196444331778505 -0.47315664102595195 0.05245046129184447
H   -1.299040114527138 -0.7386938748181779 0.8421447613238048
H   -1.233522272432718 -0.7322923776248143 -0.8322365109007818
H   1.1597263496058139 -0.5834480415854981 -0.9094253466398691
H   1.2589872144064804 -0.6955167643404475 0.9399329757176035
*
