! engrad PBE0 D3BJ def2-TZVP  
%pal nprocs 8 end
%maxcore 3000
 
*xyz 0 1 
O   -0.2685690249502394 0.8685956473578131 0.03470528495150004
C   -0.6949581063145072 -0.43504269024980513 0.0075613314647224915
C   0.769695901668002 -0.35234376662018996 0.03198163815968513
H   -1.3119243715952595 -0.7725340921060055 1.0164885583732788
H   -1.3505902137235197 -0.6077517247547743 -0.8801044490286063
H   1.2448322807976309 -0.63314274879992 -0.9624935335827558
H   1.3226634925052465 -0.6944876151316228 0.9550215565457802
*
