! engrad PBE0 D3BJ def2-TZVP  
%pal nprocs 8 end
%maxcore 3000
 
*xyz 0 1 
O   -1.0182966787641714 0.9297188235346787 0.07097051189597925
C   -0.6961407465710928 -0.4435349493098909 0.027614960032869132
C   0.6837371467351865 -0.4395908643587528 -0.08990097077926039
H   -1.3075736550890344 -0.6880405217549329 0.9025167982883374
H   -1.3029518309499901 -0.7440546314750291 -0.954498622227787
H   1.2323075448437044 -0.6764937844543099 -0.9269729475213704
H   1.2510529629885483 -0.6740271971509207 0.8908629443063922
*
