! engrad PBE0 D3BJ def2-TZVP  
%pal nprocs 8 end
%maxcore 3000
 
*xyz 0 1 
O   -0.04952676625653442 0.7386094235198615 0.004982678254382061
C   -0.7540633727058099 -0.5245536615533066 0.0034281487403013664
C   0.6757743543136947 -0.4233408684682409 -0.04597121171169016
H   -1.186326209749123 -0.7074334746168118 0.9038731441897162
H   -1.2231469091315166 -0.7298141258216978 -0.9086032232697936
H   1.3291799577141212 -0.7486450217280614 -0.9107445270733848
H   1.2768170097124212 -0.6291796664111344 0.8581286344560959
*
