! engrad PBE0 D3BJ def2-TZVP  
%pal nprocs 8 end
%maxcore 3000
 
*xyz 0 1 
O   0.043868164528783574 0.7558761013085169 0.001344401949726539
C   -0.7184704496026224 -0.5491072334212146 -0.012358869126029848
C   0.6947903276001101 -0.4971014904947458 -0.014055014644297745
H   -1.1739386036575237 -0.6362286669366495 0.8914172705108602
H   -1.235193630932192 -0.5983031381706999 -0.8737445358543616
H   1.2668043384960086 -0.7006176988852787 -0.8850650543193205
H   1.2834971392710874 -0.6235111489986134 0.9517347600840984
*
