! engrad PBE0 D3BJ def2-TZVP  
%pal nprocs 8 end
%maxcore 3000
 
*xyz 0 1 
O   -1.2166595264099314 0.8949308530570428 -0.12563071611591672
C   -0.5937539647015689 -0.41783796096182646 0.01693908742960556
C   0.7633396104134093 -0.3620030562270792 -0.022063362124725053
H   -1.248098239984935 -0.6364559306272866 0.9243147889038454
H   -1.2697123515083701 -0.7320645817282162 -0.8746384219156441
H   1.2641259508883416 -0.7108760419550497 -0.8949968481778707
H   1.1881824067139126 -0.5680562783512181 0.9829174542895165
*
