! engrad PBE0 D3BJ def2-TZVP  
%pal nprocs 8 end
%maxcore 3000
 
*xyz 0 1 
O   -0.01713432970401744 0.7483522667002105 -0.07037547473589106
C   -0.7677804243795437 -0.5025492822732914 0.08761352217118114
C   0.775673459657373 -0.38344273525029204 0.03608360320216176
H   -1.3202755185608614 -0.6944968233139887 0.9444449480613959
H   -1.3249291604445972 -0.6326209884913806 -0.9319924899079067
H   1.24508177962252 -0.6327228615898255 -0.897763054425698
H   1.245774561709046 -0.6103043198317876 0.8659230036200051
*
