! engrad PBE0 D3BJ def2-TZVP  
%pal nprocs 8 end
%maxcore 3000
 
*xyz 0 1 
O   -0.0018816851212424184 0.8220894041008261 0.0057114924331019825
C   -0.7213745019269061 -0.4652011006106928 -0.002847281186053373
C   0.7442796284446029 -0.5325289096328313 -0.06740927110528565
H   -1.2266597252988642 -0.6597275380936028 0.910777053182366
H   -1.2629010733467303 -0.6508918247319165 -0.9469642040154681
H   1.2249075837298842 -0.6584785972451159 -0.9688948588807517
H   1.2842355077857237 -0.753399990211892 0.9714339518662821
*
