! engrad PBE0 D3BJ def2-TZVP  
%pal nprocs 8 end
%maxcore 3000
 
*xyz 0 1 
O   -0.012375881777575239 0.7632026385449977 0.0310337148775339
C   -0.7200045399533372 -0.5137877079355051 0.01900989255029816
C   0.7594188272641911 -0.419030967603448 0.054039036277731094
H   -1.2221268222725548 -0.6453118060385782 0.9164679344270676
H   -1.3468708166757994 -0.6467899990433708 -0.9095918356418444
H   1.2774017618597686 -0.7321082887910155 -0.9740290470204132
H   1.3164805126666452 -0.6702485676928327 0.9540512048686312
*
