! engrad PBE0 D3BJ def2-TZVP  
%pal nprocs 8 end
%maxcore 3000
 
*xyz 0 1 
O   -0.2774012919784112 0.8932175308296351 0.027672066115398918
C   -0.6629820122909932 -0.470485754235295 0.03377770425611904
C   0.6380381786704901 -0.45617591700894994 0.05294845937855752
H   -1.2837149414099995 -0.6513989273193014 0.9723551486446361
H   -1.2115258572186167 -0.6250850454157582 -0.9260807987423837
H   1.2700584676884108 -0.6844106002804148 -0.877892484350193
H   1.3833708957731516 -0.6644608306081382 0.8916538734767522
*
