! engrad PBE0 D3BJ def2-TZVP  
%pal nprocs 8 end
%maxcore 3000
 
*xyz 0 1 
O   -0.06602278065421381 0.7930213882808449 0.014849343661659303
C   -0.7163649474827062 -0.4296980795251512 -0.034001236078924545
C   0.7405022248580502 -0.43236686633506594 -0.03571757090131839
H   -1.170534204442762 -0.6445791639544106 0.8604110451398675
H   -1.2309950895683084 -0.7170049935113662 -0.8806219898128774
H   1.32175259895037 -0.7093049759175856 -0.8718074135377839
H   1.284461916346825 -0.6271678020002754 1.0148158191326972
*
