! engrad PBE0 D3BJ def2-TZVP  
%pal nprocs 8 end
%maxcore 3000
 
*xyz 0 1 
O   -0.7003281369886335 1.0187915657509474 -0.00756131346069167
C   -0.7267208673885225 -0.4463016489593597 -0.08761409785670776
C   0.722030436183964 -0.36528409409950086 0.04308768235781015
H   -1.3230985757699418 -0.6496307597864546 0.938384703151791
H   -1.2489582391911258 -0.7241927076034601 -0.958574853775341
H   1.1296332799785576 -0.724343676477661 -0.9750384197278519
H   1.2321309123700512 -0.6897284487021672 0.9973765879381519
*
