! engrad PBE0 D3BJ def2-TZVP  
%pal nprocs 8 end
%maxcore 3000
 
*xyz 0 1 
O   -0.4618706394274144 0.9498162049882171 0.07426980844067353
C   -0.8163222838723501 -0.5541224370150177 0.03822767657603753
C   0.775682306296078 -0.4918924820479311 0.06550692792338313
H   -1.2709859356402615 -0.5513989060992441 0.880926474700438
H   -1.344299093714747 -0.6719114624381685 -0.9999532455586954
H   1.3393916713465093 -0.6500174913732019 -0.9082324173297085
H   1.2576812247015512 -0.6350366551603408 0.8414381176889978
*
