! engrad PBE0 D3BJ def2-TZVP  
%pal nprocs 8 end
%maxcore 3000
 
*xyz 0 1 
O   -0.040424630144659385 0.7418364578207732 0.04577021588510371
C   -0.7124520345170158 -0.47350850018835194 0.025663371655667806
C   0.733743417467402 -0.3985882404733555 -0.03510265469386762
H   -1.2802060373298882 -0.6878762176566079 0.8468004725933941
H   -1.249016756146771 -0.6552181463910056 -0.919720547167877
H   1.2520934633312426 -0.7390393971025208 -0.9410084861382679
H   1.2466871441736616 -0.7083846734610809 0.9119118844166996
*
