! engrad PBE0 D3BJ def2-TZVP  
%pal nprocs 8 end
%maxcore 3000
 
*xyz 0 1 
O   0.041516840827212284 0.7241201187045567 0.0035784218609696238
C   -0.7527724623382558 -0.4230714987126804 0.016683105264347416
C   0.7807665372128949 -0.47252130994273733 -0.013493746764668564
H   -1.3127611157891153 -0.6904854730038056 0.9388412446522426
H   -1.2259733391677323 -0.7143791762088814 -0.876495923994717
H   1.3316047129402475 -0.6475991148388149 -0.8261364293720967
H   1.2251334100448215 -0.7305035451655708 0.8310401575547861
*
