! engrad PBE0 D3BJ def2-TZVP  
%pal nprocs 8 end
%maxcore 3000
 
*xyz 0 1 
O   -1.509313873139616 0.7066718116815578 0.0384701801207664
C   -0.7771366468708831 -0.42918791363806164 0.029148320592753754
C   0.7839552232264013 -0.47806368272449035 -0.021349760026887828
H   -1.330504353666171 -0.6263874341946936 0.8319714872394037
H   -1.378036314425132 -0.6191881616747299 -0.9291682960842369
H   1.2531132590507303 -0.6972370533635169 -0.903344662585884
H   1.277680496655515 -0.6246127030328228 0.8375492887460069
*
