! engrad PBE0 D3BJ def2-TZVP  
%pal nprocs 8 end
%maxcore 3000
 
*xyz 0 1 
O   -0.03498622539962928 0.7776233055367111 -0.005616292484541491
C   -0.7399380699766611 -0.41631215499782875 0.03787538550236526
C   0.7023644826194736 -0.475811402032234 -0.013752584857582201
H   -1.3789189882367792 -0.7440303631099277 0.9883199333722262
H   -1.1815743843249358 -0.680722711977819 -0.8911483718472117
H   1.2793853277271767 -0.5143268195772381 -0.8639974744282711
H   1.2574269904259616 -0.7160478320300213 0.8396538539871213
*
