! engrad PBE0 D3BJ def2-TZVP  
%pal nprocs 8 end
%maxcore 3000
 
*xyz 0 1 
O   -1.421243989887276 0.7928679823528262 -0.008659749834222207
C   -0.753228548263796 -0.48330008522677387 0.037681986017704616
C   0.702527301064532 -0.5165168389283155 0.04739039084185589
H   -1.3136668336256865 -0.6461166511469033 0.8878322959698782
H   -1.2781999509466955 -0.7524361823891113 -0.9393150204086582
H   1.1812256548792182 -0.6854247465315751 -0.8480115904391948
H   1.2731066604964216 -0.7082682033763984 0.8959303894222267
*
