! engrad PBE0 D3BJ def2-TZVP  
%pal nprocs 8 end
%maxcore 3000
 
*xyz 0 1 
O   -1.4679348998090112 0.7132660582616868 0.01572356455117074
C   -0.7890406409918684 -0.4267883448395428 -0.06262274487154919
C   0.7295215330592146 -0.46334299623576497 -0.02142285887350738
H   -1.327257190369688 -0.6367768408753428 0.9466667669552008
H   -1.2818463448513908 -0.6126270566022538 -0.906647639208215
H   1.3172874827550336 -0.6081637217298597 -0.9025143886885555
H   1.3687457632332907 -0.6483980873634969 0.945725303821118
*
