! engrad PBE0 D3BJ def2-TZVP  
%pal nprocs 8 end
%maxcore 3000
 
*xyz 0 1 
O   -0.024471922125911108 0.8191323538534536 0.03409468448131557
C   -0.6365542237131983 -0.4178240807337018 -0.017964604539352978
C   0.7584222815346154 -0.3915853109708546 0.041024109059868204
H   -1.238459228444635 -0.6149370755205423 0.9784409995222837
H   -1.1947148204481237 -0.6358354156205179 -0.9283321240158428
H   1.271158504321666 -0.6079454116745822 -0.9608230035493618
H   1.282256535443645 -0.687937750616368 0.9214134111467408
*
