! engrad PBE0 D3BJ def2-TZVP  
%pal nprocs 8 end
%maxcore 3000
 
*xyz 0 1 
O   -0.24279572793726087 0.7797975819716157 0.012389730554989153
C   -0.7737474292219849 -0.4538602316630674 0.0009144595674609653
C   0.7666602391199067 -0.43625706095152783 0.04205043974656955
H   -1.3361134338522151 -0.7383694740750422 0.9149303100025543
H   -1.2912348924593426 -0.6755018854184692 -0.9022752033900381
H   1.2620471687360928 -0.6399839446968703 -0.8426932797687221
H   1.2151110533116343 -0.6717880538552051 0.9353746127608017
*
