! engrad PBE0 D3BJ def2-TZVP  
%pal nprocs 8 end
%maxcore 3000
 
*xyz 0 1 
O   0.05247768576596676 0.7401625494219717 0.06586981328171629
C   -0.71900960976538 -0.34325744636873673 -0.034459390904478394
C   0.8156877301582625 -0.4371249508268676 -0.032570900180722416
H   -1.288017221702716 -0.684288175409716 0.9411845173200958
H   -1.237680995598225 -0.696955910196929 -0.9211939496130491
H   1.370936337930593 -0.5818937014949644 -0.8981600365162984
H   1.26572304390841 -0.6622692436640869 0.9506520686365209
*
