! engrad PBE0 D3BJ def2-TZVP  
%pal nprocs 8 end
%maxcore 3000
 
*xyz 0 1 
O   -1.20123234341973 0.9802720367824272 0.02460766694331525
C   -0.7932159336456057 -0.4950504109140164 0.04914012689307475
C   0.7104046057413897 -0.3708279639245721 -0.02198802292152841
H   -1.2763986536948981 -0.6538228363592806 0.8951614031956934
H   -1.303249881738057 -0.6693044592415459 -0.9210652661247685
H   1.3105877459406328 -0.697298731735575 -0.9599908291955497
H   1.250836793625163 -0.6990535153036572 0.8518453040452141
*
