! engrad PBE0 D3BJ def2-TZVP  
%pal nprocs 8 end
%maxcore 3000
 
*xyz 0 1 
O   -0.05350418831630763 0.6906480514537631 -0.03459529349406223
C   -0.7311688908177749 -0.4348535175338654 -0.012061802892816494
C   0.7464923098257148 -0.5095974612095222 0.07218823020366298
H   -1.2679304889196283 -0.6124060184205936 0.9371124873188852
H   -1.2409851090423107 -0.6397825459883899 -0.8975907919991343
H   1.295958957993377 -0.6018132334933785 -0.9101501615149266
H   1.2992730578794256 -0.6727575947143614 0.9919820307724736
*
