! engrad PBE0 D3BJ def2-TZVP  
%pal nprocs 8 end
%maxcore 3000
 
*xyz 0 1 
O   -0.9720642135052606 1.0336636943516813 -0.029304202515011677
C   -0.7473255550960107 -0.547893472121608 -0.002815920167265067
C   0.7977210328529762 -0.45946670354499464 -0.0795783903989652
H   -1.3536037655378748 -0.7293974173636603 0.9178510624101837
H   -1.2144657683553732 -0.7207085992371328 -0.8810982708147088
H   1.3120554328370384 -0.6506988044171761 -0.9947967974298769
H   1.2630774172247485 -0.7101075273864327 0.8911740299132366
*
