! engrad PBE0 D3BJ def2-TZVP  
%pal nprocs 8 end
%maxcore 3000
 
*xyz 0 1 
O   -0.48203221220339765 0.9901050448972251 0.03135717568607584
C   -0.7801281765859114 -0.38874446733346923 0.00385217578321308
C   0.7148602817100185 -0.3875977987453234 0.02283686010310669
H   -1.3242677238863252 -0.5804179795578225 0.9730947772978293
H   -1.338241514365678 -0.6960418694295781 -0.974019867321175
H   1.1805210610925687 -0.5071548541482905 -0.9065326993833315
H   1.326443923376324 -0.6870238022766533 1.0014084146221551
*
