! engrad PBE0 D3BJ def2-TZVP  
%pal nprocs 8 end
%maxcore 3000
 
*xyz 0 1 
O   -1.4091582924346304 0.8518857517697526 0.03423286125722084
C   -0.7452902720923965 -0.3309849258931881 0.0690573917507456
C   0.7639462335483627 -0.44364212374770756 0.0016178479930416283
H   -1.23126123545359 -0.6743376932794655 0.9364313795724697
H   -1.2736749396722529 -0.7146553441786225 -0.8980403578399285
H   1.2501776632069859 -0.6572838602521291 -0.8815082985981798
H   1.277358856005567 -0.595578326247965 1.0017857102602246
*
