! engrad PBE0 D3BJ def2-TZVP  
%pal nprocs 8 end
%maxcore 3000
 
*xyz 0 1 
O   0.024665945044044464 0.7761661161847437 -0.042917779009060686
C   -0.6938740960295504 -0.4758023813118887 0.006100490732268073
C   0.8568937669134397 -0.4518234849862325 0.05746366631428379
H   -1.2989817512562942 -0.670020234524848 1.0085162517817756
H   -1.2951711228893883 -0.5776484821001536 -0.8845886232272262
H   1.2356994812052866 -0.636650473047224 -0.8713484975186635
H   1.2949133681108598 -0.7467820459945228 0.8836193112087566
*
