! engrad PBE0 D3BJ def2-TZVP  
%pal nprocs 8 end
%maxcore 3000
 
*xyz 0 1 
O   -0.05981028120403354 0.80755060111971 0.06781211142854114
C   -0.7324900960790167 -0.3968438451053988 0.018081801252381707
C   0.6966335522697438 -0.42895070972457927 0.07690182832329846
H   -1.2656142319554975 -0.5900386272092997 0.7889889647955128
H   -1.2227276447812387 -0.6639185565880915 -0.9349265875232934
H   1.268410858826775 -0.7676493057300446 -0.9309598143918756
H   1.2816784985755874 -0.5943761077629242 0.8940626590863177
*
