! engrad PBE0 D3BJ def2-TZVP  
%pal nprocs 8 end
%maxcore 3000
 
*xyz 0 1 
O   0.010173231793361156 0.7291067727357848 -0.07111257547988371
C   -0.7612182342121263 -0.5010978901807197 0.08435708175362824
C   0.7729715278474725 -0.44741912206583084 0.07399720694450129
H   -1.259954514617619 -0.7113350200664131 0.9961324238634829
H   -1.2368772678157671 -0.7201332177163229 -0.9294931539041804
H   1.220041907330762 -0.7374108465482169 -0.8736673426234179
H   1.3592937020235065 -0.738199188690957 0.9481246318345286
*
