! engrad PBE0 D3BJ def2-TZVP  
%pal nprocs 8 end
%maxcore 3000
 
*xyz 0 1 
O   -1.2354134459004487 0.9231387743257046 0.056665377348809436
C   -0.7317168256448203 -0.46629192035501743 0.047837979642217955
C   0.8545288009747695 -0.48754558927727015 -0.02987321291350072
H   -1.3830292415930194 -0.6413494258824686 0.9061943975279776
H   -1.264028032227113 -0.7305587933582148 -0.9237682765995215
H   1.3094807810269984 -0.7075676879777617 -0.8836178659016917
H   1.2499032302625066 -0.6660177405477801 0.974053867183749
*
