! engrad PBE0 D3BJ def2-TZVP  
%pal nprocs 8 end
%maxcore 3000
 
*xyz 0 1 
O   -0.5064782553707445 1.0371796994573002 0.016974275323612616
C   -0.7248038544337393 -0.462845793059429 -0.05965839894322662
C   0.7135641476209128 -0.4853093064576503 -0.04246761668301355
H   -1.1927092847458867 -0.5943373147021416 0.8968717144571949
H   -1.2357014613683863 -0.67880920431556 -0.9596503132199043
H   1.2672002116598582 -0.6823005703448478 -0.8699401026598385
H   1.300989605684814 -0.6508074562785787 0.8877673706469603
*
