! engrad PBE0 D3BJ def2-TZVP  
%pal nprocs 8 end
%maxcore 3000
 
*xyz 0 1 
O   -1.2407774652385206 0.8810700007704344 0.04436550816833717
C   -0.671157253834234 -0.4412321422914505 -0.058076016380521206
C   0.7196579631038909 -0.42367128646681373 -0.10004927653806187
H   -1.331210852927187 -0.6793022176394679 0.9160279012479834
H   -1.2942151309083485 -0.7305576038884302 -0.838486504112061
H   1.2726992483558313 -0.7018701888973188 -0.903419813053145
H   1.3641250087275372 -0.6679635678947403 0.8432416395292437
*
