! engrad PBE0 D3BJ def2-TZVP  
%pal nprocs 8 end
%maxcore 3000
 
*xyz 0 1 
O   0.061890865598673094 0.6872029270602817 -0.029968641147688643
C   -0.7286274050140908 -0.4446714603117629 -0.022503273573962184
C   0.7600320366173748 -0.5004015114691297 -0.007118974251064675
H   -1.257808148414405 -0.6425488682970626 0.9555569639044446
H   -1.3200548745918934 -0.7449766185367812 -0.8560923789050745
H   1.2804385205989794 -0.7056951868278277 -0.8424186212238739
H   1.269606601714643 -0.6093059507968087 0.9233520940705054
*
