! engrad PBE0 D3BJ def2-TZVP  
%pal nprocs 8 end
%maxcore 3000
 
*xyz 0 1 
O   -1.3417489356337502 0.8475012467693313 -0.023266476782746136
C   -0.7654275020312906 -0.4582175452152149 -0.033971949100817515
C   0.727661131440218 -0.41182766114616326 -0.020565524847963618
H   -1.2808819446999635 -0.6304536313681822 0.9062896994666972
H   -1.3066462635015288 -0.6887424698319752 -0.9753696401733853
H   1.1932826325619466 -0.6933403027370113 -0.9933603024934465
H   1.2887387652617308 -0.7000709104624989 0.9850234010954838
*
