! engrad PBE0 D3BJ def2-TZVP  
%pal nprocs 8 end
%maxcore 3000
 
*xyz 0 1 
O   -0.2550277629267585 0.9352364986338921 -0.12002256112305297
C   -0.62735940895806 -0.5041520544511382 0.010594169338885052
C   0.7641255712158553 -0.48629225058815984 0.023102986858102435
H   -1.2286115187268911 -0.6420954116053095 0.8736635043234887
H   -1.1634306224611 -0.6569227829064553 -0.9776091754625477
H   1.2954217922904563 -0.6662952256653317 -0.8967566037474552
H   1.0856470369687632 -0.6022155292264897 0.9276076976102267
*
