! engrad PBE0 D3BJ def2-TZVP  
%pal nprocs 8 end
%maxcore 3000
 
*xyz 0 1 
O   -1.3638695336307787 0.7591846156389189 0.04515425371492939
C   -0.6805927649625999 -0.5572530784417186 0.009682132184802903
C   0.7845387543287229 -0.4303715891551667 0.015036855424674709
H   -1.2494795357691177 -0.6467893658117863 0.8468479415499983
H   -1.2002438706980574 -0.6419348827013412 -0.9544366788474067
H   1.3205777665778409 -0.6607430498320076 -0.9266008840261142
H   1.2557497807193791 -0.6333457591684317 1.0128327036590314
*
