! engrad PBE0 D3BJ def2-TZVP  
%pal nprocs 8 end
%maxcore 3000
 
*xyz 0 1 
O   -0.23637634762484458 0.8620416774622928 0.0383685573551824
C   -0.6796435979045051 -0.4334786975586598 0.06959930967232036
C   0.7328816556504314 -0.4670187190348261 -0.051392527934095295
H   -1.2930588405630392 -0.6274411136726079 0.9158788674086668
H   -1.2810610707127321 -0.6418565027351304 -0.9734256591740066
H   1.2382287545436592 -0.6537105920128469 -0.8916495351823214
H   1.2890024579555601 -0.6540060257609072 0.9441905756374875
*
