! engrad PBE0 D3BJ def2-TZVP  
%pal nprocs 8 end
%maxcore 3000
 
*xyz 0 1 
O   -0.7700630458736587 0.9771480628298606 0.012205705161277456
C   -0.733224221128381 -0.5957281637967711 0.047045952749010245
C   0.7081249974539292 -0.48343625259202655 -0.053968108219825985
H   -1.265443525662844 -0.7298027288779798 0.906848545347109
H   -1.1935725653843046 -0.6352554344985115 -0.970349851960434
H   1.2752287756535112 -0.7004826745539323 -0.9800952141133494
H   1.2809080199461178 -0.6989166904171312 0.9987129007649007
*
