! engrad PBE0 D3BJ def2-TZVP  
%pal nprocs 8 end
%maxcore 3000
 
*xyz 0 1 
O   0.02854457553465835 0.82370259200903 0.04770019817466012
C   -0.6963200274347101 -0.4627839522320173 0.03794846102466337
C   0.6902482792731214 -0.45886142033700045 -0.024268177391455176
H   -1.2597292230306838 -0.5525378816663246 0.8266129603704127
H   -1.2295097604812744 -0.7489067035594826 -0.9435728132894717
H   1.318270349848368 -0.6650568590452269 -0.9738634588964653
H   1.2280576845370017 -0.6342909225532662 0.8834578384141432
*
