! engrad PBE0 D3BJ def2-TZVP  
%pal nprocs 8 end
%maxcore 3000
 
*xyz 0 1 
O   0.02362992412065215 0.7797257967156939 0.04913465919727569
C   -0.6456158677768711 -0.39630198674909345 -0.09204371156658227
C   0.6649106916632148 -0.4782614188847839 0.0013045525105416893
H   -1.2379399789765437 -0.7045580006576733 0.9293145582238539
H   -1.3015919166176662 -0.6988468001495974 -0.9903092748424112
H   1.2176611576944547 -0.7358550902808167 -0.9687698826488667
H   1.316504959830392 -0.7157407544415971 1.0515952732418694
*
