! engrad PBE0 D3BJ def2-TZVP  
%pal nprocs 8 end
%maxcore 3000
 
*xyz 0 1 
O   -0.8444424103750844 0.9564855115977178 0.04481488823257452
C   -0.6973079479600752 -0.47185780395864585 0.005863676796242814
C   0.6432870422382959 -0.4542910316441668 -0.048371381951387155
H   -1.1701938104569645 -0.6439260464768145 0.8727045202088924
H   -1.3149436156504897 -0.6965063648820663 -0.8661377578809349
H   1.2716864162729167 -0.5643442789075725 -0.9875224295128704
H   1.3171475643581447 -0.6909601889855495 0.8753788996512182
*
