! engrad PBE0 D3BJ def2-TZVP  
%pal nprocs 8 end
%maxcore 3000
 
*xyz 0 1 
O   -0.0024731354826216475 0.8006652846083302 -0.056135991078114934
C   -0.7097691026907974 -0.4386978795893472 0.024622563200407455
C   0.7433479721953908 -0.3242554830044553 -0.0318869992125658
H   -1.2903727777500908 -0.6994278363212382 0.8922023640419873
H   -1.2956921263653258 -0.6088200834446225 -0.8489510076005072
H   1.235285505312526 -0.7098886386552115 -0.8964054421806799
H   1.2362117177859515 -0.6366242191122244 0.930122321042565
*
