! engrad PBE0 D3BJ def2-TZVP  
%pal nprocs 8 end
%maxcore 3000
 
*xyz 0 1 
O   0.010822979479098743 0.7692029019951907 -0.03257990738029086
C   -0.6216923855337337 -0.4153245388840994 -0.10125712933288036
C   0.7382122557384714 -0.4801098132384194 0.0426216667398112
H   -1.303448966921635 -0.6740076320733449 0.9452255839490229
H   -1.2205350102914938 -0.7282857303527889 -0.9367012817920475
H   1.2400755544419522 -0.7009373216286856 -0.8317035079859452
H   1.2840719555480478 -0.7313150077167523 0.9658692673527388
*
