! engrad PBE0 D3BJ def2-TZVP  
%pal nprocs 8 end
%maxcore 3000
 
*xyz 0 1 
O   -0.0016346874047046558 0.6635522049980063 -0.00445589197563942
C   -0.7941130650252426 -0.4135368625584981 0.018329912304842415
C   0.6818955506836322 -0.4727138358668347 -0.05296067609444758
H   -1.2669568848636585 -0.620513693974938 0.8706899176832228
H   -1.2386204442241078 -0.6947837909186221 -0.9596198616131172
H   1.258471302002272 -0.7200329761209687 -0.9476586852673591
H   1.2039289753705575 -0.5700345533541805 0.9217393475985864
*
