! engrad PBE0 D3BJ def2-TZVP  
%pal nprocs 8 end
%maxcore 3000
 
*xyz 0 1 
O   -1.265058514003664 0.9132293698639687 0.055134151675986426
C   -0.7544984765587788 -0.46029148298487277 -0.0808503006753906
C   0.7153138155710214 -0.3997427774984171 -0.031349639334271755
H   -1.2771202940971755 -0.6339061312405424 1.0223990654318929
H   -1.2869007175906662 -0.6338785388415773 -0.869570088871734
H   1.2559973709213061 -0.6232669834812637 -0.8699526538929536
H   1.298241618012366 -0.7623255980631373 0.9629740774466586
*
