! engrad PBE0 D3BJ def2-TZVP  
%pal nprocs 8 end
%maxcore 3000
 
*xyz 0 1 
O   0.0014159688065230587 0.7684121169747873 0.04691430029879989
C   -0.7546918264108686 -0.4422144511529508 -0.023113764435252124
C   0.7071647286283842 -0.46247909617343197 0.011106688581685642
H   -1.2877603610831738 -0.6054830037213239 0.8752458548890248
H   -1.2731663522080678 -0.6902574629137088 -0.8476273257823134
H   1.2736505588255786 -0.6166786330265683 -0.9942542386518486
H   1.277175383293463 -0.6237892702188281 0.9240903694637712
*
