! engrad PBE0 D3BJ def2-TZVP  
%pal nprocs 8 end
%maxcore 3000
 
*xyz 0 1 
O   -1.498518805196227 0.6775812969974746 -0.00046941319974445585
C   -0.71722755178905 -0.4036668794915892 -0.03887216429634098
C   0.7540872205663848 -0.46209020646404875 -0.10793131130675837
H   -1.198993972261375 -0.619436677193865 0.8763771508659587
H   -1.312168492470044 -0.6678567172945842 -0.9049054630755884
H   1.2144087496102638 -0.7239920705212731 -0.960882480195088
H   1.337817623511382 -0.7476987590924276 0.9480961583363564
*
