! engrad PBE0 D3BJ def2-TZVP  
%pal nprocs 8 end
%maxcore 3000
 
*xyz 0 1 
O   -1.4723589464511986 0.7783770868829729 0.015970679622531778
C   -0.8421561435616819 -0.5158931732219615 0.09749903664330105
C   0.7006990363189491 -0.4892073693935083 0.011226929036626919
H   -1.2833918157596904 -0.6379956362850662 0.8856687028344299
H   -1.2046547676911932 -0.640823068716173 -0.9397871732847044
H   1.3325087551407775 -0.6792572011461437 -0.911989009236759
H   1.3124779894035685 -0.6686956876744539 0.9695229422665195
*
