! engrad PBE0 D3BJ def2-TZVP  
%pal nprocs 8 end
%maxcore 3000
 
*xyz 0 1 
O   -0.4356163810124476 0.849694283334698 0.017300420803394386
C   -0.7545762436479673 -0.5104050400686629 -0.030077326122229575
C   0.7891592974976144 -0.41851218958793146 -0.057612307452015704
H   -1.3196353357346975 -0.6966755530842329 0.8956947239536921
H   -1.2477461867721984 -0.6781471076345712 -0.8701794819648581
H   1.2463479854845791 -0.7529421770523438 -0.9764088836086361
H   1.3739286147488756 -0.7441863345273187 0.811854053148198
*
