! engrad PBE0 D3BJ def2-TZVP  
%pal nprocs 8 end
%maxcore 3000
 
*xyz 0 1 
O   -0.9549162619797115 0.9847495780422006 -0.031207506539685764
C   -0.7496650426604363 -0.49679394886319084 -0.04515430197081374
C   0.7197923794266049 -0.3835178869057127 0.02969649081179378
H   -1.2508513680854763 -0.6991780249405557 0.9711677653607499
H   -1.227030635057177 -0.6999282366608344 -0.8753924982456718
H   1.2760534352974782 -0.7015759021961445 -0.9578682474025333
H   1.310961489701088 -0.6569575663971532 0.895622416413539
*
