! engrad PBE0 D3BJ def2-TZVP  
%pal nprocs 4 end
%maxcore 3200
 
*xyz 0 3 
O   0.0 0.0 0.0
*
