! engrad PBE0 D3BJ def2-TZVP  
%pal nprocs 8 end
%maxcore 4000

%tddft
  nroots 1
  tda true
  Iroot 1
  end 
*xyz 0 1 
O   0.0 0.7942 0.0
C   -0.765 -0.4128 -0.0
C   1.3618686438776726 1.2270831214344045 0.0
H   -1.2729 -0.6922 0.9231
H   -1.2729 -0.6922 -0.9231
H   1.2729 -0.6922 -0.9231
H   1.2729 -0.6922 0.9231
*
