! engrad PBE0 D3BJ def2-TZVP  
%pal nprocs 8 end
%maxcore 4000
 
*xyz 0 1 
O   -1.479505773244696 0.8247603015611007 0.0
C   -0.765 -0.4128 -0.0
C   0.765 -0.4128 -0.0
H   -1.2729 -0.6922 0.9231
H   -1.2729 -0.6922 -0.9231
H   1.2729 -0.6922 -0.9231
H   1.2729 -0.6922 0.9231
*
