! freq PBE0 D3BJ def2-TZVP 
%pal nprocs 8 end
%maxcore 4000
 
*xyz 0 1 
O   5e-08 0.76692431 1.1e-07
C   -0.72888959 -0.44702049 0.0
C   0.72888954 -0.44702049 -0.0
H   -1.26382293 -0.66827081 0.91997622
H   -1.26382277 -0.66827091 -0.91997622
H   1.26382282 -0.66827086 -0.91997622
H   1.26382287 -0.66827081 0.91997617
*
