! freq PBE0 D3BJ def2-TZVP 
%pal nprocs 8 end
%maxcore 4000

%tddft
  nroots 1
  tda true
  Iroot 1
  end 
*xyz 0 1 
O   2.6e-07 0.3053742 5.3e-07
C   -1.03472311 -0.64030374 2.6e-07
C   1.03472237 -0.64030405 2.1e-07
H   -1.6442308 -0.45624156 0.89445718
H   -1.64422958 -0.45624183 -0.89445766
H   1.64422985 -0.45624177 -0.89445702
H   1.64423101 -0.45624124 0.89445649
*
